
Gurobi 7.0.1 (linux64) logging started Sun Jul  2 21:27:37 2017

Optimize a model with 7234 rows, 7232 columns and 29293 nonzeros
Variable types: 0 continuous, 7232 integer (7232 binary)
Coefficient statistics:
  Matrix range     [1e+00, 9e+00]
  Objective range  [1e+00, 1e+00]
  Bounds range     [1e+00, 1e+00]
  RHS range        [1e+00, 5e+01]
Found heuristic solution: objective 10
Presolve removed 6374 rows and 6361 columns
Presolve time: 0.03s
Presolved: 860 rows, 871 columns, 5876 nonzeros
Variable types: 0 continuous, 871 integer (871 binary)

Root relaxation: objective 4.825424e+01, 81 iterations, 0.00 seconds

    Nodes    |    Current Node    |     Objective Bounds      |     Work
 Expl Unexpl |  Obj  Depth IntInf | Incumbent    BestBd   Gap | It/Node Time

     0     0   48.25424    0   59   10.00000   48.25424   383%     -    0s
     0     0   48.00000    0    4   10.00000   48.00000   380%     -    0s
H    0     0                      21.0000000   48.00000   129%     -    0s
     0     0   48.00000    0    4   21.00000   48.00000   129%     -    0s
     0     0   48.00000    0    4   21.00000   48.00000   129%     -    0s
H    0     0                      37.0000000   48.00000  29.7%     -    0s
     0     0   48.00000    0    5   37.00000   48.00000  29.7%     -    0s
     0     0   48.00000    0    5   37.00000   48.00000  29.7%     -    0s
     0     2   48.00000    0    5   37.00000   48.00000  29.7%     -    0s

Cutting planes:
  Gomory: 2
  MIR: 1
  Zero half: 2
  Lazy constraints: 16

Explored 18 nodes (731 simplex iterations) in 0.46 seconds
Thread count was 12 (of 12 available processors)

Solution count 3: 37 21 10 
Pool objective bound 37

Optimal solution found (tolerance 1.00e-04)
Best objective 3.700000000000e+01, best bound 3.700000000000e+01, gap 0.0000%
Optimize a model with 7234 rows, 7232 columns and 29293 nonzeros
Variable types: 0 continuous, 7232 integer (7232 binary)
Coefficient statistics:
  Matrix range     [1e+00, 9e+00]
  Objective range  [2e-01, 8e-01]
  Bounds range     [1e+00, 1e+00]
  RHS range        [1e+00, 5e+01]
Found heuristic solution: objective -5.85714
Presolve removed 6374 rows and 6361 columns
Presolve time: 0.03s
Presolved: 860 rows, 871 columns, 5876 nonzeros

Loaded MIP start with objective 2.44249e-15

Variable types: 0 continuous, 871 integer (871 binary)

Root relaxation: objective 1.049914e+01, 81 iterations, 0.00 seconds

    Nodes    |    Current Node    |     Objective Bounds      |     Work
 Expl Unexpl |  Obj  Depth IntInf | Incumbent    BestBd   Gap | It/Node Time

     0     0   10.49914    0   59    0.00000   10.49914      -     -    0s
     0     0   10.24490    0    4    0.00000   10.24490      -     -    0s
     0     0   10.24490    0    4    0.00000   10.24490      -     -    0s
H    0     0                       3.3265306   10.24490   208%     -    0s
     0     0   10.24490    0    4    3.32653   10.24490   208%     -    0s
     0     0   10.24490    0    5    3.32653   10.24490   208%     -    0s
     0     0   10.24490    0    5    3.32653   10.24490   208%     -    0s
     0     2   10.24490    0    5    3.32653   10.24490   208%     -    0s

Cutting planes:
  Gomory: 2
  MIR: 1
  Zero half: 2
  Lazy constraints: 16

Explored 24 nodes (755 simplex iterations) in 0.51 seconds
Thread count was 12 (of 12 available processors)

Solution count 2: 3.32653 2.44249e-15 
Pool objective bound 3.32653

Optimal solution found (tolerance 1.00e-04)
Best objective 3.326530612245e+00, best bound 3.326530612245e+00, gap 0.0000%
Optimize a model with 7234 rows, 7232 columns and 29293 nonzeros
Variable types: 0 continuous, 7232 integer (7232 binary)
Coefficient statistics:
  Matrix range     [1e+00, 9e+00]
  Objective range  [1e-01, 9e-01]
  Bounds range     [1e+00, 1e+00]
  RHS range        [1e+00, 5e+01]
Found heuristic solution: objective -7.91176
Presolve removed 6374 rows and 6361 columns
Presolve time: 0.02s
Presolved: 860 rows, 871 columns, 5876 nonzeros

Loaded MIP start with objective 1.22125e-15

Variable types: 0 continuous, 871 integer (871 binary)

Root relaxation: objective 5.607178e+00, 81 iterations, 0.00 seconds

    Nodes    |    Current Node    |     Objective Bounds      |     Work
 Expl Unexpl |  Obj  Depth IntInf | Incumbent    BestBd   Gap | It/Node Time

     0     0    5.60718    0   59    0.00000    5.60718      -     -    0s
     0     0    5.35294    0    4    0.00000    5.35294      -     -    0s
     0     0    5.35294    0    4    0.00000    5.35294      -     -    0s
     0     0    5.35294    0    4    0.00000    5.35294      -     -    0s
     0     2    5.35294    0    4    0.00000    5.35294      -     -    0s
*   19     5               5       0.5294118    0.83824  58.3%  12.1    0s

Cutting planes:
  Gomory: 2
  MIR: 2
  Zero half: 1
  Lazy constraints: 16

Explored 27 nodes (401 simplex iterations) in 0.45 seconds
Thread count was 12 (of 12 available processors)

Solution count 2: 0.529412 1.22125e-15 
Pool objective bound 0.529412

Optimal solution found (tolerance 1.00e-04)
Best objective 5.294117647059e-01, best bound 5.294117647059e-01, gap 0.0000%
Optimize a model with 7234 rows, 7232 columns and 29293 nonzeros
Variable types: 0 continuous, 7232 integer (7232 binary)
Coefficient statistics:
  Matrix range     [1e+00, 9e+00]
  Objective range  [1e-01, 9e-01]
  Bounds range     [1e+00, 1e+00]
  RHS range        [1e+00, 5e+01]
Found heuristic solution: objective -8.375
Presolve removed 6374 rows and 6361 columns
Presolve time: 0.02s
Presolved: 860 rows, 871 columns, 5876 nonzeros

Loaded MIP start with objective -0

Variable types: 0 continuous, 871 integer (871 binary)

Root relaxation: objective 4.504237e+00, 81 iterations, 0.00 seconds

    Nodes    |    Current Node    |     Objective Bounds      |     Work
 Expl Unexpl |  Obj  Depth IntInf | Incumbent    BestBd   Gap | It/Node Time

     0     0    4.50424    0   59   -0.00000    4.50424      -     -    0s
     0     0    4.25000    0    2   -0.00000    4.25000      -     -    0s
     0     0    4.25000    0    4   -0.00000    4.25000      -     -    0s
     0     0    4.25000    0    4   -0.00000    4.25000      -     -    0s
     0     0    4.25000    0    5   -0.00000    4.25000      -     -    0s
     0     0    4.25000    0    5   -0.00000    4.25000      -     -    0s
     0     2    4.25000    0    5   -0.00000    4.25000      -     -    0s

Cutting planes:
  Gomory: 2
  MIR: 1
  Zero half: 2
  Lazy constraints: 14

Explored 19 nodes (772 simplex iterations) in 0.44 seconds
Thread count was 12 (of 12 available processors)

Solution count 1: -0 
Pool objective bound -0

Optimal solution found (tolerance 1.00e-04)
Best objective -0.000000000000e+00, best bound -0.000000000000e+00, gap -

Gurobi 7.0.1 (linux64) logging started Sun Jul  2 21:28:05 2017

Optimize a model with 7234 rows, 7232 columns and 29276 nonzeros
Variable types: 0 continuous, 7232 integer (7232 binary)
Coefficient statistics:
  Matrix range     [1e+00, 9e+00]
  Objective range  [1e+00, 1e+00]
  Bounds range     [1e+00, 1e+00]
  RHS range        [1e+00, 5e+01]
Found heuristic solution: objective 10
Presolve removed 6377 rows and 6361 columns
Presolve time: 0.04s
Presolved: 857 rows, 871 columns, 5856 nonzeros
Variable types: 0 continuous, 871 integer (871 binary)

Root relaxation: objective 4.825424e+01, 81 iterations, 0.00 seconds

    Nodes    |    Current Node    |     Objective Bounds      |     Work
 Expl Unexpl |  Obj  Depth IntInf | Incumbent    BestBd   Gap | It/Node Time

     0     0   48.25424    0   59   10.00000   48.25424   383%     -    0s
     0     0   48.00000    0    4   10.00000   48.00000   380%     -    0s
     0     0   48.00000    0    4   10.00000   48.00000   380%     -    0s
     0     0   48.00000    0    4   10.00000   48.00000   380%     -    0s
     0     2   48.00000    0    4   10.00000   48.00000   380%     -    0s
*   19     4               6      37.0000000   37.00000  0.00%  13.3    0s

Cutting planes:
  Gomory: 2
  MIR: 2
  Zero half: 1
  Lazy constraints: 17

Explored 23 nodes (404 simplex iterations) in 0.45 seconds
Thread count was 12 (of 12 available processors)

Solution count 2: 37 10 
Pool objective bound 37

Optimal solution found (tolerance 1.00e-04)
Best objective 3.700000000000e+01, best bound 3.700000000000e+01, gap 0.0000%
Optimize a model with 7234 rows, 7232 columns and 29276 nonzeros
Variable types: 0 continuous, 7232 integer (7232 binary)
Coefficient statistics:
  Matrix range     [1e+00, 9e+00]
  Objective range  [3e-01, 7e-01]
  Bounds range     [1e+00, 1e+00]
  RHS range        [1e+00, 5e+01]
Found heuristic solution: objective -5.54
Presolve removed 6377 rows and 6361 columns
Presolve time: 0.02s
Presolved: 857 rows, 871 columns, 5856 nonzeros

Loaded MIP start with objective 4.44089e-16

Variable types: 0 continuous, 871 integer (871 binary)

Root relaxation: objective 1.125424e+01, 81 iterations, 0.00 seconds

    Nodes    |    Current Node    |     Objective Bounds      |     Work
 Expl Unexpl |  Obj  Depth IntInf | Incumbent    BestBd   Gap | It/Node Time

     0     0   11.25424    0   59    0.00000   11.25424      -     -    0s
     0     0   11.00000    0    2    0.00000   11.00000      -     -    0s
H    0     0                       3.8400000   11.00000   186%     -    0s
     0     0   11.00000    0    4    3.84000   11.00000   186%     -    0s
     0     0   11.00000    0    2    3.84000   11.00000   186%     -    0s
     0     0   11.00000    0    2    3.84000   11.00000   186%     -    0s
     0     2   11.00000    0    2    3.84000   11.00000   186%     -    0s

Cutting planes:
  Gomory: 2
  Lazy constraints: 16

Explored 23 nodes (354 simplex iterations) in 0.44 seconds
Thread count was 12 (of 12 available processors)

Solution count 2: 3.84 4.44089e-16 
Pool objective bound 3.84

Optimal solution found (tolerance 1.00e-04)
Best objective 3.840000000000e+00, best bound 3.840000000000e+00, gap 0.0000%
Optimize a model with 7234 rows, 7232 columns and 29276 nonzeros
Variable types: 0 continuous, 7232 integer (7232 binary)
Coefficient statistics:
  Matrix range     [1e+00, 9e+00]
  Objective range  [1e-01, 9e-01]
  Bounds range     [1e+00, 1e+00]
  RHS range        [1e+00, 5e+01]
Found heuristic solution: objective -7.91176
Presolve removed 6377 rows and 6361 columns
Presolve time: 0.02s
Presolved: 857 rows, 871 columns, 5856 nonzeros

Loaded MIP start with objective 1.11022e-15

Variable types: 0 continuous, 871 integer (871 binary)

Root relaxation: objective 5.607178e+00, 81 iterations, 0.00 seconds

    Nodes    |    Current Node    |     Objective Bounds      |     Work
 Expl Unexpl |  Obj  Depth IntInf | Incumbent    BestBd   Gap | It/Node Time

     0     0    5.60718    0   59    0.00000    5.60718      -     -    0s
     0     0    5.35294    0    4    0.00000    5.35294      -     -    0s
     0     0    5.35294    0    4    0.00000    5.35294      -     -    0s
     0     0    5.35294    0    4    0.00000    5.35294      -     -    0s
     0     2    5.35294    0    4    0.00000    5.35294      -     -    0s
*   19     5               5       0.5294118    0.83824  58.3%  12.1    0s

Cutting planes:
  Gomory: 2
  MIR: 2
  Zero half: 1
  Lazy constraints: 16

Explored 27 nodes (405 simplex iterations) in 0.45 seconds
Thread count was 12 (of 12 available processors)

Solution count 2: 0.529412 1.11022e-15 
Pool objective bound 0.529412

Optimal solution found (tolerance 1.00e-04)
Best objective 5.294117647059e-01, best bound 5.294117647059e-01, gap 0.0000%
Optimize a model with 7234 rows, 7232 columns and 29276 nonzeros
Variable types: 0 continuous, 7232 integer (7232 binary)
Coefficient statistics:
  Matrix range     [1e+00, 9e+00]
  Objective range  [1e-01, 9e-01]
  Bounds range     [1e+00, 1e+00]
  RHS range        [1e+00, 5e+01]
Found heuristic solution: objective -8.375
Presolve removed 6377 rows and 6361 columns
Presolve time: 0.02s
Presolved: 857 rows, 871 columns, 5856 nonzeros

Loaded MIP start with objective -0

Variable types: 0 continuous, 871 integer (871 binary)

Root relaxation: objective 4.504237e+00, 81 iterations, 0.00 seconds

    Nodes    |    Current Node    |     Objective Bounds      |     Work
 Expl Unexpl |  Obj  Depth IntInf | Incumbent    BestBd   Gap | It/Node Time

     0     0    4.50424    0   59   -0.00000    4.50424      -     -    0s
     0     0    4.25000    0    2   -0.00000    4.25000      -     -    0s
     0     0    4.25000    0    4   -0.00000    4.25000      -     -    0s
     0     0    4.25000    0    4   -0.00000    4.25000      -     -    0s
     0     0    4.25000    0    5   -0.00000    4.25000      -     -    0s
     0     0    4.25000    0    5   -0.00000    4.25000      -     -    0s
     0     2    4.25000    0    5   -0.00000    4.25000      -     -    0s

Cutting planes:
  Gomory: 2
  MIR: 1
  Zero half: 2
  Lazy constraints: 14

Explored 19 nodes (736 simplex iterations) in 0.45 seconds
Thread count was 12 (of 12 available processors)

Solution count 1: -0 
Pool objective bound -0

Optimal solution found (tolerance 1.00e-04)
Best objective -0.000000000000e+00, best bound -0.000000000000e+00, gap -
